param N := 8;

param S := 1;

param T := 6;

param : E :   C :=
       1 2    1
       1 4    8
       1 7    6
       2 4    2
       3 2   14
       3 4   10
       3 5    6
       3 6   19
       4 5    8
       4 8   13
       5 8   12
       6 5    7
       7 4    5
       8 6    4
       8 7   10;

